45 
300 
4.6 7.1 0 0
5 5.6 0 -17
5.7 11.4 20 -11
4.4 12.3 -20 -129
2.8 14.3 30 -29
3.2 10.3 15 -14
3.5 9.8 -15 -75
4.4 8.4 -10 -138
7.8 11 -20 -112
8.8 9.8 -20 -60
7.7 8.2 -20 -128
6.3 7.9 -15 -116
5.4 8.2 -10 -75
5.8 6.8 10 -16
6.7 5.8 25 -19
13.8 13.1 40 -22
14.1 14.2 40 -28
11.2 13.6 30 -26
9.7 16.4 30 -11
9.5 18.8 50 -14
4.7 16.8 30 -25
